32	0

0	3	2	3	4
10	2	5	6
5	2	5	6
4	2	5	6
7	1	7
5	1	7
8	1	8
4	1	9
4	2	10	11
5	3	12	13	14
6	3	12	13	14
4	2	15	16
10	2	15	16
3	2	15	16
7	1	17
2	1	17
7	1	18
3	1	19
5	2	20	21
6	1	22
1	1	22
3	1	23
1	2	24	25
1	2	26	27
7	2	26	27
6	1	28
5	1	28
2	2	29	30
2	1	31
8	1	31
2	1	32
0	0
